423 5
10 10 10 10 10 

0 0 0 0 0 0 4 2 14 26 38 
0 0 0 0 0 0 5 3 4 6 11 12 
2 0 0 0 1 0 4 10 9 7 5 
10 0 0 0 8 0 2 8 7 
8 0 0 0 8 0 1 8 
5 0 0 0 8 0 1 7 
4 0 0 0 10 0 1 13 
1 0 0 0 5 0 1 13 
3 0 0 0 8 0 1 13 
2 0 0 0 8 0 1 13 
3 0 0 0 10 0 1 13 
8 0 0 0 9 0 1 13 
0 0 0 0 0 0 1 50 
0 0 0 0 0 0 2 15 16 
6 0 0 0 7 0 4 24 19 18 17 
8 0 0 0 5 0 2 18 17 
6 0 0 0 7 0 4 23 22 21 20 
8 0 0 0 5 0 3 23 22 20 
4 0 0 0 9 0 2 21 20 
10 0 0 0 10 0 1 25 
7 0 0 0 8 0 1 25 
7 0 0 0 4 0 1 25 
4 0 0 0 10 0 1 25 
10 0 0 0 10 0 1 25 
0 0 0 0 0 0 1 50 
0 0 0 0 0 0 5 27 28 29 30 31 
6 0 2 0 0 0 3 36 33 32 
5 0 7 0 0 0 3 36 33 32 
7 0 5 0 0 0 3 36 33 32 
3 0 8 0 0 0 3 36 33 32 
1 0 9 0 0 0 2 36 32 
1 0 10 0 0 0 2 35 34 
1 0 10 0 0 0 1 34 
9 0 7 0 0 0 1 37 
8 0 9 0 0 0 1 37 
3 0 8 0 0 0 1 37 
0 0 0 0 0 0 1 50 
0 0 0 0 0 0 5 39 41 42 47 48 
5 0 1 0 0 0 1 40 
5 0 10 0 0 0 3 46 45 44 
3 0 8 0 0 0 1 43 
10 0 9 0 0 0 1 43 
2 0 9 0 0 0 1 49 
10 0 8 0 0 0 1 49 
1 0 9 0 0 0 1 49 
9 0 8 0 0 0 1 49 
5 0 5 0 0 0 1 49 
9 0 8 0 0 0 1 49 
0 0 0 0 0 0 1 50 
0 0 0 0 0 0 4 51 93 105 147 
0 0 0 0 0 0 3 52 53 57 
9 3 0 3 7 7 4 59 56 55 54 
4 8 0 6 5 4 4 66 65 61 58 
3 10 0 4 10 9 6 77 66 65 63 62 61 
7 4 0 8 10 10 5 72 66 62 61 60 
4 6 0 5 7 10 3 66 61 58 
6 10 0 5 4 8 3 63 61 59 
8 8 0 7 10 10 4 72 68 64 60 
10 5 0 4 10 6 7 77 75 74 72 71 68 66 
9 7 0 7 9 6 5 77 75 73 69 63 
9 6 0 10 10 4 4 75 73 67 64 
9 10 0 8 5 9 6 74 73 71 70 69 68 
4 6 0 7 10 7 6 79 78 74 71 70 67 
4 7 0 4 5 7 6 79 78 74 71 70 69 
2 10 0 10 4 9 5 76 73 72 70 68 
8 9 0 10 9 8 5 78 73 70 69 67 
2 10 0 10 6 6 3 84 80 76 
4 6 0 10 10 6 3 82 79 78 
8 10 0 6 9 10 2 80 76 
3 5 0 9 5 2 3 83 82 81 
10 6 0 6 6 5 3 83 82 81 
9 9 0 10 5 8 3 83 82 81 
8 10 0 10 10 7 2 82 80 
4 6 0 9 8 9 2 84 80 
4 10 0 10 8 6 2 82 80 
8 7 0 9 7 9 4 86 85 83 82 
8 2 0 10 6 7 4 86 85 83 82 
8 9 0 7 2 8 3 91 84 81 
10 8 0 7 7 4 1 80 
5 9 0 6 10 10 2 91 81 
7 6 0 8 10 5 3 90 86 85 
2 10 0 6 6 10 4 90 89 88 87 
2 10 0 7 6 7 4 91 90 88 87 
8 4 0 6 10 10 1 85 
2 10 0 9 5 8 3 89 88 87 
3 9 0 10 8 5 3 89 88 87 
9 6 0 4 8 10 1 92 
3 5 0 9 9 9 1 92 
2 4 0 8 9 7 1 92 
1 10 0 6 5 8 1 92 
8 10 0 10 10 10 1 92 
0 0 0 0 0 0 1 423 
0 0 0 0 0 0 3 94 95 103 
7 5 0 0 0 0 4 102 101 100 97 
2 6 0 0 0 0 2 99 96 
2 6 0 0 0 0 2 98 97 
7 6 0 0 0 0 1 104 
9 6 0 0 0 0 1 104 
7 9 0 0 0 0 1 104 
6 9 0 0 0 0 1 104 
4 8 0 0 0 0 1 104 
6 10 0 0 0 0 1 104 
1 10 0 0 0 0 1 104 
0 0 0 0 0 0 4 189 221 233 265 
0 0 0 0 0 0 3 106 110 112 
6 3 4 4 2 0 4 115 109 108 107 
2 8 7 8 4 0 7 134 122 120 119 118 116 114 
7 4 8 10 6 0 2 117 111 
6 10 9 8 10 0 5 137 122 117 116 113 
3 9 9 5 8 0 4 122 120 116 113 
10 6 5 7 7 0 4 137 122 116 113 
3 6 7 10 7 0 4 119 116 115 114 
2 6 4 4 4 0 9 134 131 130 126 125 124 123 121 119 
5 8 10 9 10 0 8 131 130 129 127 126 125 124 121 
5 7 9 8 10 0 4 134 131 127 117 
4 9 8 10 6 0 5 131 130 129 128 127 
10 8 9 10 8 0 4 130 126 123 121 
6 10 7 9 8 0 5 132 131 130 129 126 
4 7 10 10 7 0 3 129 128 127 
9 7 8 10 10 0 3 137 129 123 
7 9 10 10 8 0 3 140 132 128 
8 10 7 8 4 0 2 129 127 
10 5 10 10 10 0 3 145 139 132 
6 10 7 5 8 0 3 145 140 132 
4 7 7 9 10 0 3 145 139 132 
1 4 7 5 10 0 3 145 139 133 
7 7 6 7 4 0 2 145 132 
7 7 5 6 7 0 3 139 136 135 
4 10 6 6 10 0 2 140 133 
6 10 8 5 10 0 4 145 144 139 138 
10 6 6 6 9 0 2 138 135 
10 9 6 6 4 0 1 133 
6 4 7 5 7 0 3 144 138 136 
10 7 10 9 10 0 1 135 
7 6 5 7 9 0 4 145 144 142 141 
2 7 10 8 10 0 3 143 142 141 
5 10 7 7 10 0 3 143 142 141 
2 5 7 6 8 0 2 143 142 
4 7 3 8 7 0 2 142 141 
7 10 10 9 5 0 2 143 141 
7 9 10 6 5 0 1 146 
8 10 9 6 4 0 1 146 
5 10 10 10 7 0 1 146 
1 8 6 10 10 0 1 146 
9 5 7 4 7 0 1 146 
0 0 0 0 0 0 1 423 
0 0 0 0 0 0 5 148 152 153 154 158 
3 0 6 6 3 5 3 156 151 149 
7 0 10 6 9 8 2 167 150 
6 0 9 9 7 3 8 187 173 168 163 162 161 157 155 
7 0 9 6 9 10 10 187 176 173 170 166 165 164 163 161 160 
2 0 8 9 10 2 7 176 175 172 168 166 159 156 
8 0 10 8 4 6 6 174 173 163 162 161 155 
9 0 10 7 5 7 4 168 161 160 157 
7 0 8 10 7 8 6 176 175 172 170 166 159 
3 0 10 5 10 6 4 170 167 163 162 
1 0 10 9 8 7 4 175 174 172 165 
3 0 5 10 7 6 4 178 174 173 163 
10 0 2 8 7 10 3 181 180 165 
6 0 9 4 8 6 2 181 162 
1 0 8 8 8 8 3 186 175 169 
2 0 3 10 10 9 3 186 180 169 
4 0 5 5 8 7 3 186 181 169 
4 0 10 7 7 10 2 174 172 
5 0 10 10 4 9 2 186 169 
2 0 7 3 5 10 2 186 169 
7 0 5 9 8 6 2 178 173 
5 0 6 6 9 9 2 180 171 
9 0 4 7 8 5 1 171 
10 0 5 6 10 10 5 186 185 184 182 180 
6 0 10 8 8 7 3 185 179 177 
1 0 9 10 8 10 3 183 182 178 
3 0 7 6 10 7 2 180 177 
2 0 9 5 5 7 2 180 177 
10 0 10 8 5 8 3 183 182 181 
3 0 5 6 8 10 2 182 178 
10 0 10 8 10 4 2 184 182 
5 0 5 9 6 7 2 186 185 
5 0 6 10 7 7 1 183 
4 0 10 8 10 7 1 183 
3 0 8 6 6 10 1 184 
1 0 10 7 10 10 1 188 
2 0 10 8 9 8 1 188 
9 0 6 7 6 8 1 188 
4 0 4 10 7 8 1 188 
7 0 7 10 5 8 1 188 
8 0 5 6 9 7 1 188 
0 0 0 0 0 0 1 423 
0 0 0 0 0 0 6 190 191 192 193 194 195 
1 3 0 6 5 0 3 198 197 196 
1 9 0 5 7 0 3 205 198 196 
3 6 0 6 5 0 3 205 198 196 
10 3 0 6 10 0 4 203 202 201 197 
2 8 0 5 7 0 3 203 197 196 
7 8 0 6 10 0 3 202 201 197 
6 7 0 8 2 0 5 206 204 201 200 199 
8 10 0 10 9 0 5 206 205 204 200 199 
6 7 0 4 7 0 3 203 202 199 
7 10 0 10 7 0 3 209 208 207 
6 9 0 8 10 0 3 209 208 207 
4 10 0 8 10 0 3 209 208 207 
10 10 0 10 10 0 3 209 208 207 
5 9 0 7 7 0 3 209 208 207 
10 8 0 5 8 0 2 208 207 
8 8 0 6 9 0 2 211 209 
1 7 0 10 10 0 1 207 
5 8 0 9 5 0 3 215 211 210 
4 5 0 10 7 0 4 219 215 213 211 
6 5 0 7 10 0 3 215 212 210 
6 6 0 9 6 0 3 219 216 213 
5 8 0 7 10 0 2 214 212 
8 7 0 10 7 0 2 218 216 
2 10 0 6 9 0 1 214 
8 7 0 8 10 0 2 218 217 
6 10 0 10 5 0 2 218 217 
1 10 0 7 8 0 1 217 
6 5 0 7 8 0 1 220 
8 7 0 7 3 0 1 220 
9 5 0 8 4 0 1 220 
0 0 0 0 0 0 1 423 
0 0 0 0 0 0 4 222 223 224 228 
3 0 0 0 0 1 4 231 227 226 225 
5 0 0 0 0 5 3 231 227 225 
7 0 0 0 0 6 3 231 226 225 
2 0 0 0 0 9 2 230 229 
7 0 0 0 0 8 1 230 
9 0 0 0 0 10 1 229 
1 0 0 0 0 9 1 229 
1 0 0 0 0 10 1 232 
8 0 0 0 0 9 1 232 
10 0 0 0 0 8 1 232 
0 0 0 0 0 0 4 297 319 341 363 
0 0 0 0 0 0 6 234 235 236 237 238 241 
8 0 5 0 1 2 5 251 249 242 240 239 
5 0 10 0 6 10 4 249 248 242 239 
10 0 10 0 9 6 3 251 242 239 
7 0 3 0 7 6 3 251 240 239 
1 0 6 0 8 10 2 251 240 
8 0 2 0 9 8 4 247 246 245 243 
2 0 9 0 10 8 5 253 252 248 247 246 
10 0 10 0 7 3 3 253 252 246 
8 0 8 0 5 6 1 244 
6 0 10 0 8 8 3 253 252 250 
10 0 10 0 9 10 3 253 252 250 
3 0 7 0 5 10 2 253 250 
5 0 6 0 7 7 1 250 
10 0 10 0 7 8 1 250 
1 0 10 0 7 6 1 250 
1 0 3 0 10 3 1 250 
9 0 10 0 7 6 5 263 262 259 255 254 
4 0 7 0 9 7 3 259 256 253 
3 0 6 0 10 10 2 262 254 
2 0 7 0 7 7 4 263 262 261 258 
10 0 7 0 9 4 2 261 257 
8 0 7 0 6 9 1 256 
5 0 7 0 8 10 2 261 260 
9 0 10 0 8 7 1 258 
7 0 9 0 7 10 1 260 
1 0 10 0 7 10 1 261 
9 0 5 0 10 7 1 264 
4 0 10 0 10 9 1 264 
1 0 3 0 8 9 1 264 
1 0 8 0 4 9 1 264 
0 0 0 0 0 0 1 423 
0 0 0 0 0 0 6 266 267 268 269 270 271 
10 3 0 4 4 0 4 280 274 273 272 
2 8 0 10 9 0 5 283 281 280 274 272 
1 8 0 8 8 0 4 281 280 274 272 
7 7 0 10 6 0 2 273 272 
8 8 0 5 10 0 3 276 275 273 
3 5 0 4 9 0 5 283 281 279 277 275 
2 6 0 6 10 0 4 279 278 277 275 
9 8 0 7 9 0 4 283 281 278 277 
7 5 0 9 10 0 1 276 
10 10 0 10 6 0 3 285 284 282 
3 8 0 4 9 0 3 285 284 282 
3 4 0 7 8 0 2 285 282 
4 10 0 7 4 0 2 285 282 
6 10 0 9 5 0 2 284 282 
4 6 0 10 10 0 2 285 282 
5 10 0 10 6 0 1 282 
6 8 0 10 8 0 4 295 292 287 286 
8 6 0 8 10 0 2 286 284 
10 8 0 10 10 0 5 295 292 290 289 288 
10 10 0 9 6 0 4 292 289 288 286 
7 6 0 8 7 0 2 294 290 
6 4 0 10 5 0 2 289 288 
9 10 0 4 5 0 2 294 293 
3 9 0 6 6 0 2 294 293 
3 8 0 10 6 0 1 291 
6 10 0 3 5 0 1 293 
10 6 0 6 10 0 1 294 
2 10 0 9 6 0 1 296 
8 9 0 5 9 0 1 296 
3 5 0 7 9 0 1 296 
0 0 0 0 0 0 1 423 
0 0 0 0 0 0 7 298 299 300 302 303 316 317 
7 0 0 0 7 4 5 315 313 312 306 301 
1 0 0 0 10 9 7 313 312 310 309 307 306 305 
3 0 0 0 4 4 5 313 312 310 309 305 
7 0 0 0 10 10 2 310 304 
3 0 0 0 6 5 4 314 312 306 305 
8 0 0 0 5 9 4 310 309 306 305 
2 0 0 0 7 7 3 311 309 305 
2 0 0 0 4 6 1 308 
9 0 0 0 6 8 1 308 
1 0 0 0 8 10 1 311 
10 0 0 0 8 9 1 318 
7 0 0 0 10 8 1 318 
5 0 0 0 10 4 1 318 
8 0 0 0 9 8 1 318 
10 0 0 0 10 9 1 318 
5 0 0 0 5 10 1 318 
10 0 0 0 9 9 1 318 
5 0 0 0 2 8 1 318 
9 0 0 0 10 6 1 318 
10 0 0 0 10 7 1 318 
0 0 0 0 0 0 1 423 
0 0 0 0 0 0 8 320 321 322 323 324 327 330 339 
3 8 0 4 0 0 4 337 336 335 325 
3 4 0 3 0 0 5 338 337 336 332 328 
8 6 0 8 0 0 4 336 335 332 329 
8 8 0 8 0 0 4 336 335 332 328 
3 6 0 8 0 0 3 335 332 326 
10 5 0 9 0 0 4 338 334 332 331 
2 10 0 10 0 0 1 328 
9 10 0 10 0 0 3 337 336 335 
10 9 0 4 0 0 2 334 331 
1 4 0 4 0 0 2 334 331 
5 10 0 9 0 0 2 334 331 
4 9 0 8 0 0 1 333 
3 7 0 10 0 0 1 333 
9 6 0 8 0 0 1 340 
8 10 0 9 0 0 1 340 
5 6 0 10 0 0 1 340 
2 8 0 6 0 0 1 340 
9 4 0 8 0 0 1 340 
7 10 0 9 0 0 1 340 
10 10 0 5 0 0 1 340 
0 0 0 0 0 0 1 423 
0 0 0 0 0 0 4 342 343 345 347 
2 3 0 0 4 0 3 348 346 344 
3 5 0 0 3 0 3 354 348 346 
3 6 0 0 10 0 5 361 354 351 350 349 
1 8 0 0 9 0 2 349 348 
4 10 0 0 10 0 4 361 351 350 349 
3 7 0 0 9 0 5 361 354 353 352 351 
10 10 0 0 8 0 3 361 351 350 
10 10 0 0 8 0 4 356 355 353 352 
2 7 0 0 9 0 3 355 353 352 
8 9 0 0 4 0 3 360 356 355 
1 9 0 0 10 0 3 360 359 357 
4 3 0 0 7 0 3 359 358 357 
4 6 0 0 4 0 2 358 357 
5 5 0 0 3 0 1 358 
1 7 0 0 9 0 1 357 
2 10 0 0 10 0 1 362 
9 10 0 0 7 0 1 362 
6 8 0 0 10 0 1 362 
4 8 0 0 6 0 1 362 
8 9 0 0 10 0 1 362 
0 0 0 0 0 0 1 423 
0 0 0 0 0 0 5 364 366 367 372 373 
4 0 0 2 0 0 4 371 370 369 365 
8 0 0 8 0 0 1 368 
1 0 0 8 0 0 1 368 
6 0 0 10 0 0 1 368 
10 0 0 9 0 0 1 374 
2 0 0 10 0 0 1 374 
1 0 0 10 0 0 1 374 
4 0 0 6 0 0 1 374 
1 0 0 5 0 0 1 374 
5 0 0 7 0 0 1 374 
0 0 0 0 0 0 4 375 387 399 411 
0 0 0 0 0 0 3 376 377 379 
4 7 0 0 0 0 3 385 381 378 
7 6 0 0 0 0 4 384 383 381 380 
6 9 0 0 0 0 2 384 383 
3 7 0 0 0 0 1 380 
8 9 0 0 0 0 1 382 
6 5 0 0 0 0 1 382 
7 7 0 0 0 0 1 386 
1 9 0 0 0 0 1 386 
9 10 0 0 0 0 1 386 
2 6 0 0 0 0 1 386 
0 0 0 0 0 0 1 423 
0 0 0 0 0 0 3 388 390 397 
1 0 0 0 2 0 4 396 395 392 389 
5 0 0 0 7 0 3 394 393 391 
8 0 0 0 5 0 2 392 391 
5 0 0 0 10 0 1 398 
5 0 0 0 8 0 1 398 
7 0 0 0 9 0 1 398 
8 0 0 0 8 0 1 398 
3 0 0 0 10 0 1 398 
8 0 0 0 6 0 1 398 
2 0 0 0 10 0 1 398 
0 0 0 0 0 0 1 423 
0 0 0 0 0 0 5 400 402 403 408 409 
9 0 0 0 1 0 2 404 401 
6 0 0 0 10 0 3 407 406 405 
7 0 0 0 10 0 2 407 404 
5 0 0 0 6 0 2 406 405 
3 0 0 0 6 0 1 405 
9 0 0 0 6 0 1 410 
5 0 0 0 10 0 1 410 
2 0 0 0 9 0 1 410 
6 0 0 0 7 0 1 410 
8 0 0 0 10 0 1 410 
0 0 0 0 0 0 1 423 
0 0 0 0 0 0 4 412 413 414 415 
1 0 4 0 0 0 3 421 417 416 
8 0 4 0 0 0 2 421 416 
7 0 3 0 0 0 2 421 416 
4 0 10 0 0 0 1 416 
9 0 8 0 0 0 3 420 419 418 
3 0 10 0 0 0 3 420 419 418 
1 0 10 0 0 0 1 422 
5 0 10 0 0 0 1 422 
2 0 8 0 0 0 1 422 
1 0 8 0 0 0 1 422 
0 0 0 0 0 0 1 423 
0 0 0 0 0 0 0 
